
Gurobi 6.5.2 (linux64) logging started Mon Aug 29 10:58:10 2016

Optimize a model with 201 rows, 3565 columns and 8255 nonzeros
Coefficient statistics:
  Matrix range    [1e+00, 2e+00]
  Objective range [1e+00, 1e+02]
  Bounds range    [1e+00, 1e+00]
  RHS range       [1e+00, 1e+00]
Found heuristic solution: objective 1241
Presolve removed 50 rows and 1 columns
Presolve time: 0.02s
Presolved: 151 rows, 3564 columns, 7679 nonzeros
Variable types: 0 continuous, 3564 integer (3564 binary)

Root relaxation: objective 3.862500e+02, 106 iterations, 0.00 seconds

    Nodes    |    Current Node    |     Objective Bounds      |     Work
 Expl Unexpl |  Obj  Depth IntInf | Incumbent    BestBd   Gap | It/Node Time

     0     0  386.25000    0   36 1241.00000  386.25000  68.9%     -    0s
H    0     0                     475.0000000  386.25000  18.7%     -    0s
H    0     0                     461.0000000  386.25000  16.2%     -    0s
     0     0  422.83333    0   35  461.00000  422.83333  8.28%     -    0s
     0     0  427.86752    0   63  461.00000  427.86752  7.19%     -    0s
     0     0  427.86752    0   36  461.00000  427.86752  7.19%     -    0s
     0     0  427.86752    0   37  461.00000  427.86752  7.19%     -    0s
     0     0  427.86752    0   65  461.00000  427.86752  7.19%     -    0s
     0     0  429.70883    0   72  461.00000  429.70883  6.79%     -    0s
     0     0  430.64426    0   73  461.00000  430.64426  6.58%     -    0s
     0     0  432.36364    0   65  461.00000  432.36364  6.21%     -    0s
     0     0  432.36364    0   34  461.00000  432.36364  6.21%     -    0s
H    0     0                     456.0000000  432.36364  5.18%     -    0s
     0     0  432.36364    0   37  456.00000  432.36364  5.18%     -    0s
     0     0  432.36364    0   51  456.00000  432.36364  5.18%     -    0s
     0     0  434.92500    0   51  456.00000  434.92500  4.62%     -    0s
     0     0  434.92500    0   36  456.00000  434.92500  4.62%     -    0s
     0     0  434.92500    0   29  456.00000  434.92500  4.62%     -    0s
     0     0  434.92500    0   64  456.00000  434.92500  4.62%     -    0s
     0     0  435.87436    0   64  456.00000  435.87436  4.41%     -    0s
     0     0  436.14764    0   63  456.00000  436.14764  4.35%     -    0s
     0     0  437.13295    0   76  456.00000  437.13295  4.14%     -    0s
     0     0  437.13295    0   32  456.00000  437.13295  4.14%     -    0s
     0     0  437.13295    0   39  456.00000  437.13295  4.14%     -    0s
     0     0  437.13295    0   52  456.00000  437.13295  4.14%     -    0s
     0     0  437.13295    0   65  456.00000  437.13295  4.14%     -    0s
     0     0  437.31138    0   69  456.00000  437.31138  4.10%     -    0s
     0     0  437.87002    0   74  456.00000  437.87002  3.98%     -    0s
     0     0  437.90329    0   78  456.00000  437.90329  3.97%     -    0s
     0     0  438.73993    0   76  456.00000  438.73993  3.79%     -    0s
     0     0  438.79950    0   73  456.00000  438.79950  3.77%     -    0s
     0     0  438.79950    0   73  456.00000  438.79950  3.77%     -    0s
     0     0  438.79950    0   36  456.00000  438.79950  3.77%     -    0s
     0     0  438.79950    0   60  456.00000  438.79950  3.77%     -    0s
     0     0  438.79950    0   64  456.00000  438.79950  3.77%     -    0s
     0     0  438.79950    0   80  456.00000  438.79950  3.77%     -    0s
     0     0  438.91111    0   68  456.00000  438.91111  3.75%     -    0s
     0     0  439.36332    0   72  456.00000  439.36332  3.65%     -    0s
     0     0  439.40483    0   76  456.00000  439.40483  3.64%     -    0s
     0     0  439.77333    0   61  456.00000  439.77333  3.56%     -    0s
     0     0  439.81709    0   68  456.00000  439.81709  3.55%     -    0s
     0     0  441.03968    0   74  456.00000  441.03968  3.28%     -    0s
     0     0  441.20159    0   67  456.00000  441.20159  3.25%     -    0s
     0     0  441.20159    0   66  456.00000  441.20159  3.25%     -    0s
     0     0  441.20159    0   36  456.00000  441.20159  3.25%     -    0s
     0     0  441.20159    0   53  456.00000  441.20159  3.25%     -    0s
     0     0  441.20159    0   58  456.00000  441.20159  3.25%     -    0s
     0     0  441.20159    0   62  456.00000  441.20159  3.25%     -    0s
     0     0  441.20159    0   69  456.00000  441.20159  3.25%     -    0s
     0     0  441.52276    0   85  456.00000  441.52276  3.17%     -    0s
     0     0  441.52276    0   84  456.00000  441.52276  3.17%     -    0s
     0     2  441.52276    0   84  456.00000  441.52276  3.17%     -    0s

Cutting planes:
  Gomory: 35
  Cover: 78
  MIR: 10
  Mod-K: 2

Explored 142 nodes (2723 simplex iterations) in 0.73 seconds
Thread count was 8 (of 8 available processors)

Optimal solution found (tolerance 1.00e-04)
Best objective 4.560000000000e+02, best bound 4.560000000000e+02, gap 0.0%
